c Generated map
c Size: 8 * 8, weights in range: 1 to 10, walls: True, with ratio 0.05
c dim 6 of 10
c
p sp 64 102
c graph contains 64 nodes and 102 arcs
c
a 1 9 1
a 9 1 1
a 1 2 6
a 2 1 6
a 2 10 4
a 10 2 4
a 2 3 3
a 3 2 3
a 3 11 1
a 11 3 1
a 5 13 4
a 13 5 4
a 5 6 1
a 6 5 1
a 6 14 6
a 14 6 6
a 6 7 8
a 7 6 8
a 7 15 10
a 15 7 10
a 7 8 8
a 8 7 8
a 8 16 6
a 16 8 6
a 9 17 6
a 17 9 6
a 9 10 4
a 10 9 4
a 10 18 1
a 18 10 1
a 10 11 4
a 11 10 4
a 11 19 6
a 19 11 6
a 11 12 9
a 12 11 9
a 12 20 8
a 20 12 8
a 12 13 4
a 13 12 4
a 13 21 10
a 21 13 10
a 13 14 7
a 14 13 7
a 14 22 4
a 22 14 4
a 14 15 7
a 15 14 7
a 15 23 9
a 23 15 9
a 15 16 6
a 16 15 6
a 16 24 4
a 24 16 4
a 17 25 9
a 25 17 9
a 17 18 8
a 18 17 8
a 18 26 9
a 26 18 9
a 18 19 4
a 19 18 4
a 19 27 4
a 27 19 4
a 19 20 8
a 20 19 8
a 20 28 3
a 28 20 3
a 20 21 8
a 21 20 8
a 21 29 2
a 29 21 2
a 21 22 8
a 22 21 8
a 22 30 4
a 30 22 4
a 22 23 3
a 23 22 3
a 23 31 3
a 31 23 3
a 23 24 4
a 24 23 4
a 24 32 4
a 32 24 4
a 25 33 9
a 33 25 9
a 25 26 8
a 26 25 8
a 26 34 7
a 34 26 7
a 26 27 10
a 27 26 10
a 27 35 6
a 35 27 6
a 27 28 1
a 28 27 1
a 28 36 10
a 36 28 10
a 28 29 9
a 29 28 9
a 29 37 8
a 37 29 8
a 29 30 2
a 30 29 2
a 30 38 9
a 38 30 9
a 30 31 9
a 31 30 9
a 31 39 4
a 39 31 4
a 31 32 6
a 32 31 6
a 32 40 10
a 40 32 10
a 33 41 2
a 41 33 2
a 33 34 6
a 34 33 6
a 34 42 4
a 42 34 4
a 34 35 5
a 35 34 5
a 35 43 5
a 43 35 5
a 35 36 1
a 36 35 1
a 36 44 6
a 44 36 6
a 36 37 3
a 37 36 3
a 37 45 8
a 45 37 8
a 37 38 5
a 38 37 5
a 38 46 1
a 46 38 1
a 38 39 5
a 39 38 5
a 39 47 4
a 47 39 4
a 39 40 3
a 40 39 3
a 41 49 2
a 49 41 2
a 41 42 4
a 42 41 4
a 42 50 10
a 50 42 10
a 42 43 3
a 43 42 3
a 43 51 2
a 51 43 2
a 43 44 9
a 44 43 9
a 44 52 8
a 52 44 8
a 44 45 1
a 45 44 1
a 45 53 4
a 53 45 4
a 45 46 5
a 46 45 5
a 46 47 7
a 47 46 7
a 47 55 9
a 55 47 9
a 49 57 7
a 57 49 7
a 49 50 6
a 50 49 6
a 50 58 6
a 58 50 6
a 50 51 9
a 51 50 9
a 51 59 6
a 59 51 6
a 51 52 8
a 52 51 8
a 52 60 5
a 60 52 5
a 52 53 6
a 53 52 6
a 53 61 6
a 61 53 6
a 55 63 5
a 63 55 5
a 55 56 6
a 56 55 6
a 56 64 1
a 64 56 1
a 57 58 3
a 58 57 3
a 58 59 6
a 59 58 6
a 59 60 10
a 60 59 10
a 60 61 7
a 61 60 7
a 61 62 5
a 62 61 5
a 62 63 8
a 63 62 8
a 63 64 8
a 64 63 8
